69184 100 1100 10 27 20 21 28 27 22 24 23 20 12 13 21 22 25 12 15 23 24 19 18 17 10 19 19 27 23 28 23 13 27 26 21 22 24 24 17 18 13 25 12 22 24 18 16 12 18 25 29 27 13 25 13 27 21 18 28 18 16 17 24 12 19 20 29 26 22 14 16 22 22 14 21 19 17 15 24 19 11 12 25 10 19 28 29 13 25 22 27 22 18 12 28 20 13 21 17 29 17 21 62 266 158 179 275 280 224 240 224 170 112 126 193 204 263 83 182 252 242 239 169 150 61 184 174 257 245 268 205 101 286 256 222 226 263 249 153 178 116 201 103 140 214 204 124 113 136 260 282 286 91 245 109 250 216 189 280 213 182 206 249 78 195 250 297 263 226 120 146 219 231 119 199 173 182 150 265 190 69 113 224 60 191 285 286 137 219 186 257 205 147 112 286 170 91 169 153 298 165 189
